This is Ipopt version 3.14.16, running with linear solver MUMPS 5.7.3.

Number of nonzeros in equality constraint Jacobian...:        0
Number of nonzeros in inequality constraint Jacobian.:      360
Number of nonzeros in Lagrangian Hessian.............:        0

Total number of variables............................:       15
                     variables with only lower bounds:        0
                variables with lower and upper bounds:       15
                     variables with only upper bounds:        0
Total number of equality constraints.................:        0
Total number of inequality constraints...............:       24
        inequality constraints with only lower bounds:        0
   inequality constraints with lower and upper bounds:        0
        inequality constraints with only upper bounds:       24

iter    objective    inf_pr   inf_du lg(mu)  ||d||  lg(rg) alpha_du alpha_pr  ls
   0  1.5570926e-03 7.07e+01 1.00e+00   0.0 0.00e+00    -  0.00e+00 0.00e+00   0
   1  5.6841797e-03 1.91e+00 1.07e+01  -0.8 4.93e-01    -  2.90e-01 1.00e+00f  1
   2  5.3140171e-03 4.13e-01 3.30e+00  -6.0 7.52e-02    -  5.49e-01 7.14e-01h  1
   3  5.1401992e-03 1.60e-04 3.42e-01  -2.4 2.54e-02    -  9.74e-01 1.00e+00h  1
   4  5.0560734e-03 0.00e+00 1.61e-01  -7.8 4.61e-02    -  8.47e-01 1.00e+00h  1
   5  4.8313473e-03 0.00e+00 7.68e-03  -4.3 1.21e-01    -  9.93e-01 1.00e+00h  1
   6  4.7690186e-03 0.00e+00 2.70e-03  -5.5 1.02e-01    -  1.00e+00 9.99e-01h  1
   7  4.5341751e-03 0.00e+00 2.45e-02  -4.6 1.04e+00    -  1.00e+00 5.19e-01h  1
   8  4.3922522e-03 6.87e-02 1.85e-02  -6.0 7.27e-01    -  6.42e-01 8.89e-01h  1
   9  4.3731117e-03 0.00e+00 4.25e-03  -4.7 5.90e-01    -  1.00e+00 8.39e-01h  1
iter    objective    inf_pr   inf_du lg(mu)  ||d||  lg(rg) alpha_du alpha_pr  ls
  10  4.3277367e-03 0.00e+00 8.68e-04  -4.9 5.84e-02    -  1.00e+00 1.00e+00h  1

Number of Iterations....: 10

                                   (scaled)                 (unscaled)
Objective...............:   4.3277366895625611e-03    4.3277366895625611e-03
Dual infeasibility......:   8.6828911847453797e-04    8.6828911847453797e-04
Constraint violation....:   0.0000000000000000e+00    0.0000000000000000e+00
Variable bound violation:   0.0000000000000000e+00    0.0000000000000000e+00
Complementarity.........:   6.8010957923223594e-05    6.8010957923223594e-05
Overall NLP error.......:   8.6828911847453797e-04    8.6828911847453797e-04


Number of objective function evaluations             = 11
Number of objective gradient evaluations             = 11
Number of equality constraint evaluations            = 0
Number of inequality constraint evaluations          = 11
Number of equality constraint Jacobian evaluations   = 0
Number of inequality constraint Jacobian evaluations = 11
Number of Lagrangian Hessian evaluations             = 0
Total seconds in IPOPT                               = 1.707

EXIT: Optimal Solution Found.
